71
1 1 2
2 1 4
3 1 7
4 1 9
5 1 13
6 1 15
7 1 18
8 1 20
9 2 3
10 2 6
11 2 8
12 2 12
13 2 14
14 2 17
15 2 19
16 3 5
17 3 7
18 3 10
19 3 13
20 3 16
21 3 18
22 3 21
23 4 5
24 4 6
25 4 10
26 4 12
27 4 16
28 4 17
29 4 21
30 5 8
31 5 9
32 5 14
33 5 15
34 5 19
35 5 20
36 6 11
37 6 13
38 6 15
39 6 22
40 7 11
41 7 12
42 7 14
43 7 22
44 8 11
45 8 13
46 8 16
47 8 22
48 9 11
49 9 12
50 9 16
51 9 22
52 10 11
53 10 14
54 10 15
55 10 22
56 11 17
57 11 18
58 11 19
59 11 20
60 11 21
61 12 23
62 13 23
63 14 23
64 15 23
65 16 23
66 17 23
67 18 23
68 19 23
69 20 23
70 21 23
71 22 23